19.87 0.27 2.76 12.31 0.3 4.74 15.82 0.22 4.92 13.5 0.11 2.95 24.78 0.21 2.5
27.25 0.2 2.93 13.48 0.27 4.27 27.63 0.2 4.95 28.25 0.26 4.38 25.6 0.26 2.97
18.68 0.28 3.89 16.03 0.2 2.05 22.15 0.17 3.77 15.83 0.13 3.21 17.98 0.12 2.27
19.2 0.29 4.49 23.77 0.2 2.45 19.18 0.21 3.07 13.54 0.13 4.27 29.92 0.24 4.56
11.24 0.1 2.83 23.13 0.1 3.21 25.87 0.11 2.9 10.07 0.18 2.64 15.9 0.15 4.98
26.0 0.21 3.32 13.78 0.21 4.25 12.72 0.29 4.26 26.32 0.21 3.15 20.66 0.29 4.05
12.37 0.2 2.28 13.57 0.15 4.53 17.91 0.17 3.7 19.51 0.28 3.14 27.91 0.25 2.4
19.97 0.2 3.88 29.18 0.16 4.8 26.03 0.27 3.08 22.7 0.24 3.43 12.68 0.12 2.74
